
(set-logic BV)

(define-fun shr1 ((x (BitVec 64))) (BitVec 64) (bvlshr x #x0000000000000001))
(define-fun shr4 ((x (BitVec 64))) (BitVec 64) (bvlshr x #x0000000000000004))
(define-fun shr16 ((x (BitVec 64))) (BitVec 64) (bvlshr x #x0000000000000010))
(define-fun shl1 ((x (BitVec 64))) (BitVec 64) (bvshl x #x0000000000000001))
(define-fun if0 ((x (BitVec 64)) (y (BitVec 64)) (z (BitVec 64))) (BitVec 64) (ite (= x #x0000000000000001) y z))
(define-fun func23  ((A (BitVec 64)) (B (BitVec 64)) (C (BitVec 64)) (D (BitVec 64)) ) (BitVec 64) (bvand (bvlshr (bvlshr C  D ) B ) A ))
(define-fun func24  ((A (BitVec 64)) (B (BitVec 64)) (C (BitVec 64)) ) (BitVec 64) (bvand (bvlshr B  C ) A ))
(define-fun func25  ((A (BitVec 64)) (B (BitVec 64)) ) (BitVec 64) (bvand (bvlshr B  #x0000000000000001 ) A ))
(define-fun func26  ((A (BitVec 64)) (B (BitVec 64)) ) (BitVec 64) (bvand (bvlshr B  #x0000000000000010 ) A ))
(define-fun func27  ((A (BitVec 64)) (B (BitVec 64)) ) (BitVec 64) (bvand (bvlshr B  #x0000000000000004 ) A ))
(define-fun func28  ((A (BitVec 64)) (B (BitVec 64)) ) (BitVec 64) (bvand (bvlshr A  B ) #x0000000000000001 ))
(define-fun func29  ((A (BitVec 64)) ) (BitVec 64) (bvand A  #x0000000000000001 ))
(define-fun func30  ((A (BitVec 64)) (B (BitVec 64)) (C (BitVec 64)) (D (BitVec 64)) ) (BitVec 64) (bvlshr (bvlshr (bvlshr C  D ) B ) A ))
(define-fun func31  ((A (BitVec 64)) (B (BitVec 64)) (C (BitVec 64)) ) (BitVec 64) (bvlshr (bvlshr (bvlshr B  C ) A ) #x0000000000000004 ))
(define-fun func32  ((A (BitVec 64)) (B (BitVec 64)) (C (BitVec 64)) ) (BitVec 64) (bvlshr (bvlshr (bvlshr C  #x0000000000000010 ) B ) A ))
(define-fun func33  ((A (BitVec 64)) (B (BitVec 64)) (C (BitVec 64)) ) (BitVec 64) (bvlshr (bvlshr (bvlshr B  C ) #x0000000000000004 ) A ))
(define-fun func34  ((A (BitVec 64)) (B (BitVec 64)) (C (BitVec 64)) ) (BitVec 64) (bvlshr (bvlshr B  C ) A ))
(define-fun func35  ((A (BitVec 64)) (B (BitVec 64)) ) (BitVec 64) (bvlshr (bvlshr B  #x0000000000000010 ) A ))
(define-fun func36  ((A (BitVec 64)) (B (BitVec 64)) ) (BitVec 64) (bvlshr (bvlshr B  #x0000000000000004 ) A ))
(define-fun func37  ((A (BitVec 64)) (B (BitVec 64)) ) (BitVec 64) (bvlshr (bvlshr B  #x0000000000000001 ) A ))
(define-fun func38  ((A (BitVec 64)) (B (BitVec 64)) ) (BitVec 64) (bvlshr (bvlshr A  B ) #x0000000000000001 ))
(define-fun func39  ((A (BitVec 64)) (B (BitVec 64)) ) (BitVec 64) (bvlshr (bvlshr A  B ) #x0000000000000004 ))
(define-fun func40  ((A (BitVec 64)) (B (BitVec 64)) ) (BitVec 64) (bvlshr A  B ))
(define-fun func41  ((A (BitVec 64)) (B (BitVec 64)) (C (BitVec 64)) ) (BitVec 64) (bvlshr (bvshl B  C ) A ))
(define-fun func42  ((A (BitVec 64)) (B (BitVec 64)) ) (BitVec 64) (bvlshr (bvshl B  #x0000000000000001 ) A ))
(define-fun func43  ((A (BitVec 64)) (B (BitVec 64)) (C (BitVec 64)) ) (BitVec 64) (bvlshr (bvadd B  C ) A ))
(define-fun func44  ((A (BitVec 64)) (B (BitVec 64)) ) (BitVec 64) (bvlshr (bvnot B ) A ))
(define-fun func45  ((A (BitVec 64)) ) (BitVec 64) (bvlshr (bvnot A ) #x0000000000000010 ))
(define-fun func46  ((A (BitVec 64)) (B (BitVec 64)) (C (BitVec 64)) ) (BitVec 64) (bvor (bvlshr B  C ) A ))
(define-fun func47  ((A (BitVec 64)) ) (BitVec 64) (bvor A  #x0000000000000001 ))
(define-fun func48  ((A (BitVec 64)) (B (BitVec 64)) (C (BitVec 64)) ) (BitVec 64) (bvshl (bvlshr B  C ) A ))
(define-fun func49  ((A (BitVec 64)) (B (BitVec 64)) ) (BitVec 64) (bvshl (bvlshr B  #x0000000000000001 ) A ))
(define-fun func50  ((A (BitVec 64)) (B (BitVec 64)) ) (BitVec 64) (bvshl (bvlshr A  B ) #x0000000000000001 ))
(define-fun func52  ((A (BitVec 64)) (B (BitVec 64)) (C (BitVec 64)) ) (BitVec 64) (bvadd (bvlshr B  C ) A ))
(define-fun func53  ((A (BitVec 64)) ) (BitVec 64) (bvadd A  #x0000000000000001 ))
(define-fun func54  ((A (BitVec 64)) (B (BitVec 64)) (C (BitVec 64)) ) (BitVec 64) (bvadd (bvshl B  C ) A ))
(define-fun func55  ((A (BitVec 64)) (B (BitVec 64)) ) (BitVec 64) (bvadd (bvshl B  #x0000000000000001 ) A ))
(define-fun func56  ((A (BitVec 64)) ) (BitVec 64) (bvnot (bvshl A  #x0000000000000001 )))
(synth-fun f ( (x (BitVec 64))) (BitVec 64)
(
(Start (BitVec 64) (
   #x0000000000000000
   #x0000000000000001
   x
   (func23 Start Start Start Start)
   (func25 Start Start)
   (func26 Start Start)
   (func30 Start Start Start Start)
   (func32 Start Start Start)
   (func33 Start Start Start)
   (func35 Start Start)
   (func36 Start Start)
   (func37 Start Start)
   (func38 Start Start)
   (func39 Start Start)
   (func41 Start Start Start)
   (func42 Start Start)
   (func43 Start Start Start)
   (func44 Start Start)
   (func45 Start)
   (func46 Start Start Start)
   (func47 Start)
   (func48 Start Start Start)
   (func49 Start Start)
   (func50 Start Start)
   (func53 Start)
   (func54 Start Start Start)
   (bvnot Start)
   (shl1 Start)
   (shr1 Start)
   (shr4 Start)
   (shr16 Start)
   (bvor Start Start)
   (bvxor Start Start)
   (bvadd Start Start)
   (if0 Start Start Start)
))
))
(constraint (= (f #xe9770aa10cacb30c) #xe9770aa10cacb30e))
(constraint (= (f #x1c14b64e2717423e) #x1c14b64e2717423c))
(constraint (= (f #xd123e2eaed9b2040) #xd123e2eaed9b2042))
(constraint (= (f #x6bb2782a4cb648ba) #x6bb2782a4cb648b8))
(constraint (= (f #xe6a8adcd2a0515d6) #xe6a8adcd2a0515d4))
(constraint (= (f #x0ada9e34c6e7938d) #xf52561cb39186c72))
(constraint (= (f #xb93e327e6dcd693d) #x46c1cd81923296c2))
(constraint (= (f #xc8293b7147e394ce) #xc8293b7147e394cc))
(constraint (= (f #x9a778869ee82e19c) #x9a778869ee82e19e))
(constraint (= (f #xacc924e82ea4eec5) #x5336db17d15b113a))
(check-synth)
